(set-info :origin "Verification conditions for the caml program
  
  let rec bot _ = bot ()
  let fail _ = assert false
  
     let rec c1_COEFFICIENT_1088 = 0
     let rec c0_COEFFICIENT_1087 = 0
     let id_1030 set_flag_f_1187 s_f_n_1182 x_1031 = x_1031
  
     let app_1032 x_DO_NOT_CARE_1219 x_DO_NOT_CARE_1220 h_EXPARAM_1090 x_DO_NOT_CARE_1217 x_DO_NOT_CARE_1218 h_1033 set_flag_f_1187 s_f_n_1182 v_1034 =
       h_1033 set_flag_f_1187 s_f_n_1182 () set_flag_f_1187 s_f_n_1182 v_1034
  
     let rec f_1035 f_without_checking_1197 x_DO_NOT_CARE_1199 x_DO_NOT_CARE_1200 n_1036 prev_set_flag_f_1186 s_prev_f_n_1184 u_1037 =
       let u  =if prev_set_flag_f_1186 then
                let u_9957 = fail ()
                in
                  bot()
               else () in
              f_without_checking_1197 x_DO_NOT_CARE_1199 x_DO_NOT_CARE_1200
                n_1036 prev_set_flag_f_1186 s_prev_f_n_1184 u_1037
  
     let rec f_without_checking_1197 x_DO_NOT_CARE_1215 x_DO_NOT_CARE_1216 n_1036 set_flag_f_1187 s_f_n_1182 u_1037 =
       let set_flag_f_1187 = true
       in
       let s_f_n_1182 = n_1036
       in
         if n_1036 > 0 then
           app_1032 set_flag_f_1187 s_f_n_1182
             ((c0_COEFFICIENT_1087 * n_1036) + c1_COEFFICIENT_1088)
             set_flag_f_1187 s_f_n_1182
             (f_1035 f_without_checking_1197 set_flag_f_1187 s_f_n_1182 (n_1036 - 1))
         else
           id_1030
  
     let main_1038 r =
       let set_flag_f_1187 = false in
       let s_f_n_1182 = 0 in
       f_without_checking_1197 set_flag_f_1187 s_f_n_1182 r
         set_flag_f_1187 s_f_n_1182 () set_flag_f_1187 s_f_n_1182 ()
")

(set-logic HORN)

(declare-fun |main_1038$unknown:55|
  ( Int ) Bool
)

(declare-fun |fail$unknown:50|
  ( Int Int ) Bool
)

(declare-fun |f_without_checking_1197$unknown:48|
  ( Int Int Int Int Int Int Int Int Int Int ) Bool
)

(declare-fun |f_without_checking_1197$unknown:47|
  ( Int Int Int Int Int Int Int Int Int ) Bool
)

(declare-fun |bot$unknown:18|
  ( Int Int ) Bool
)

(assert
  (forall ( (|$V-reftype:30| Int) (|$alpha-24:x_DO_NOT_CARE_1215| Int) (|$alpha-25:x_DO_NOT_CARE_1216| Int) (|$alpha-27:set_flag_f_1187| Int) (|$alpha-28:s_f_n_1182| Int) (|$alpha-29:u_1037| Int) (|$cond-alpha-rename:1992| Int) (|$cond-alpha-rename:1993| Int) (|$cond-alpha-rename:1994| Int) (|$cond-alpha-rename:1996| Int) (|$cond-alpha-rename:1997| Int) (|$cond-alpha-rename:1998| Int) (|$cond-alpha-rename:2010| Int) (|$cond-alpha-rename:2011| Int) (|$cond-alpha-rename:2013| Int) (|$cond-alpha-rename:2014| Int) (|$cond-alpha-rename:2015| Int) (|$cond-alpha-rename:2022| Int) (|$cond-alpha-rename:2023| Int) (|$cond-alpha-rename:2024| Int) (|$cond-alpha-rename:2026| Int) (|$cond-alpha-rename:2027| Int) (|$cond-alpha-rename:2028| Int) (|$cond-alpha-rename:2035| Int) (|$cond-alpha-rename:2036| Int) (|$cond-alpha-rename:2041| Int) (|$cond-alpha-rename:2043| Int) (|$cond-alpha-rename:2044| Int) (|$cond-alpha-rename:2049| Int) (|$cond-alpha-rename:2050| Int) (|$cond-alpha-rename:2051| Int) (|$cond-alpha-rename:2053| Int) (|$cond-alpha-rename:2054| Int) (|$cond-alpha-rename:2055| Int) (|$cond-alpha-rename:2067| Int) (|$cond-alpha-rename:2068| Int) (|$cond-alpha-rename:2070| Int) (|$cond-alpha-rename:2071| Int) (|$cond-alpha-rename:2072| Int) (|$cond-alpha-rename:2079| Int) (|$cond-alpha-rename:2080| Int) (|$cond-alpha-rename:2081| Int) (|$cond-alpha-rename:2082| Int) (|$cond-alpha-rename:2083| Int) (|$cond-alpha-rename:2084| Int) (|$cond-alpha-rename:2085| Int) (|$cond-alpha-rename:2087| Int) (|$cond-alpha-rename:2089| Int) (|$cond-alpha-rename:278| Int) (|$cond-alpha-rename:279| Int) (|$cond-alpha-rename:281| Int) (|$cond-alpha-rename:282| Int) (|$cond-alpha-rename:283| Int) (|$cond-alpha-rename:290| Int) (|$cond-alpha-rename:291| Int) (|$cond-alpha-rename:293| Int) (|$cond-alpha-rename:294| Int) (|$cond-alpha-rename:295| Int) (|$cond-alpha-rename:302| Int) (|$cond-alpha-rename:380| Int) (|$cond-alpha-rename:381| Int) (|$cond-alpha-rename:382| Int) (|$cond-alpha-rename:384| Int) (|$cond-alpha-rename:385| Int) (|$cond-alpha-rename:386| Int) )
    (=>
      ( and (> |$cond-alpha-rename:2082| 0) (= (- |$cond-alpha-rename:2082| 1) (- |$cond-alpha-rename:2082| 1)) (= 1 1) (= 1 1) (= 1 1) (= 1 1) (= 1 1) (= 1 1) (= 1 1) (= 0 0) (= (+ (* 0 |$cond-alpha-rename:2082|) 0) (+ (* 0 |$cond-alpha-rename:2082|) 0)) (= (+ (* 0 |$cond-alpha-rename:2082|) 0) (+ (* 0 |$cond-alpha-rename:2082|) 0)) (= (+ (* 0 |$cond-alpha-rename:2082|) 0) (+ (* 0 |$cond-alpha-rename:2082|) 0)) (= (+ (* 0 |$cond-alpha-rename:2082|) 0) (+ (* 0 |$cond-alpha-rename:2082|) 0)) (= (+ (* 0 |$cond-alpha-rename:2082|) 0) (+ (* 0 |$cond-alpha-rename:2082|) 0)) (= (+ (* 0 |$cond-alpha-rename:2082|) 0) (+ (* 0 |$cond-alpha-rename:2082|) 0)) (not (= 0 |$cond-alpha-rename:2035|)) (> |$cond-alpha-rename:2082| 0) (> |$cond-alpha-rename:2082| 0) (> |$cond-alpha-rename:2082| 0) (> |$cond-alpha-rename:2044| 0) (> |$cond-alpha-rename:2082| 0) (> |$cond-alpha-rename:2082| 0) (> |$cond-alpha-rename:2082| 0) (> |$cond-alpha-rename:2082| 0) (> |$cond-alpha-rename:2082| 0) (> |$cond-alpha-rename:2082| 0) (> |$cond-alpha-rename:2082| 0) (|fail$unknown:50| |$cond-alpha-rename:2089| 1) (|fail$unknown:50| |$cond-alpha-rename:2043| 1) (|f_without_checking_1197$unknown:48| |$cond-alpha-rename:302| |$V-reftype:30| |$cond-alpha-rename:2036| |$cond-alpha-rename:2035| 1 |$cond-alpha-rename:2036| |$cond-alpha-rename:2035| (- |$cond-alpha-rename:2082| 1) |$cond-alpha-rename:2082| 1) (|f_without_checking_1197$unknown:47| |$cond-alpha-rename:380| |$cond-alpha-rename:2036| |$cond-alpha-rename:2035| |$cond-alpha-rename:386| |$cond-alpha-rename:385| |$cond-alpha-rename:384| |$cond-alpha-rename:2082| |$cond-alpha-rename:382| |$cond-alpha-rename:381|) (|f_without_checking_1197$unknown:47| |$cond-alpha-rename:2079| |$cond-alpha-rename:2036| |$cond-alpha-rename:2035| |$cond-alpha-rename:2085| |$cond-alpha-rename:2084| |$cond-alpha-rename:2083| |$cond-alpha-rename:2082| |$cond-alpha-rename:2081| |$cond-alpha-rename:2080|) (|f_without_checking_1197$unknown:47| |$cond-alpha-rename:2049| |$cond-alpha-rename:2036| |$cond-alpha-rename:2035| |$cond-alpha-rename:2055| |$cond-alpha-rename:2054| |$cond-alpha-rename:2053| |$cond-alpha-rename:2082| |$cond-alpha-rename:2051| |$cond-alpha-rename:2050|) (|f_without_checking_1197$unknown:47| |$cond-alpha-rename:2022| |$cond-alpha-rename:2036| |$cond-alpha-rename:2035| |$cond-alpha-rename:2028| |$cond-alpha-rename:2027| |$cond-alpha-rename:2026| |$cond-alpha-rename:2082| |$cond-alpha-rename:2024| |$cond-alpha-rename:2023|) (|f_without_checking_1197$unknown:47| |$cond-alpha-rename:1992| |$cond-alpha-rename:2036| |$cond-alpha-rename:2035| |$cond-alpha-rename:1998| |$cond-alpha-rename:1997| |$cond-alpha-rename:1996| |$cond-alpha-rename:2082| |$cond-alpha-rename:1994| |$cond-alpha-rename:1993|) (|f_without_checking_1197$unknown:47| |$V-reftype:30| |$cond-alpha-rename:2036| |$cond-alpha-rename:2035| |$cond-alpha-rename:295| |$cond-alpha-rename:294| |$cond-alpha-rename:293| |$cond-alpha-rename:2082| |$cond-alpha-rename:291| |$cond-alpha-rename:290|) (|f_without_checking_1197$unknown:47| |$V-reftype:30| |$cond-alpha-rename:2036| |$cond-alpha-rename:2035| |$cond-alpha-rename:283| |$cond-alpha-rename:282| |$cond-alpha-rename:281| |$cond-alpha-rename:2082| |$cond-alpha-rename:279| |$cond-alpha-rename:278|) (|f_without_checking_1197$unknown:47| |$V-reftype:30| |$cond-alpha-rename:2036| |$cond-alpha-rename:2035| |$alpha-29:u_1037| |$alpha-28:s_f_n_1182| |$alpha-27:set_flag_f_1187| |$cond-alpha-rename:2082| |$alpha-25:x_DO_NOT_CARE_1216| |$alpha-24:x_DO_NOT_CARE_1215|) (|f_without_checking_1197$unknown:47| |$V-reftype:30| |$cond-alpha-rename:2036| |$cond-alpha-rename:2035| |$cond-alpha-rename:2015| |$cond-alpha-rename:2014| |$cond-alpha-rename:2013| |$cond-alpha-rename:2082| |$cond-alpha-rename:2011| |$cond-alpha-rename:2010|) (|f_without_checking_1197$unknown:47| |$V-reftype:30| |$cond-alpha-rename:2036| |$cond-alpha-rename:2035| |$cond-alpha-rename:2072| |$cond-alpha-rename:2071| |$cond-alpha-rename:2070| |$cond-alpha-rename:2082| |$cond-alpha-rename:2068| |$cond-alpha-rename:2067|) (|bot$unknown:18| |$cond-alpha-rename:2087| 1) (|bot$unknown:18| |$cond-alpha-rename:2041| 1) )
      (|f_without_checking_1197$unknown:48| |$cond-alpha-rename:302| |$V-reftype:30| |$cond-alpha-rename:2036| |$cond-alpha-rename:2035| |$alpha-29:u_1037| |$alpha-28:s_f_n_1182| |$alpha-27:set_flag_f_1187| |$cond-alpha-rename:2082| |$alpha-25:x_DO_NOT_CARE_1216| |$alpha-24:x_DO_NOT_CARE_1215|)
    )
  )
)
(assert
  (forall ( (|$V-reftype:30| Int) (|$alpha-24:x_DO_NOT_CARE_1215| Int) (|$alpha-25:x_DO_NOT_CARE_1216| Int) (|$alpha-27:set_flag_f_1187| Int) (|$alpha-28:s_f_n_1182| Int) (|$alpha-29:u_1037| Int) (|$cond-alpha-rename:2103| Int) (|$cond-alpha-rename:2104| Int) (|$cond-alpha-rename:2105| Int) (|$cond-alpha-rename:2107| Int) (|$cond-alpha-rename:2108| Int) (|$cond-alpha-rename:2109| Int) (|$cond-alpha-rename:2121| Int) (|$cond-alpha-rename:2122| Int) (|$cond-alpha-rename:2124| Int) (|$cond-alpha-rename:2125| Int) (|$cond-alpha-rename:2126| Int) (|$cond-alpha-rename:2133| Int) (|$cond-alpha-rename:2134| Int) (|$cond-alpha-rename:2135| Int) (|$cond-alpha-rename:2137| Int) (|$cond-alpha-rename:2138| Int) (|$cond-alpha-rename:2139| Int) (|$cond-alpha-rename:2146| Int) (|$cond-alpha-rename:2147| Int) (|$cond-alpha-rename:2151| Int) (|$cond-alpha-rename:2156| Int) (|$cond-alpha-rename:2157| Int) (|$cond-alpha-rename:2158| Int) (|$cond-alpha-rename:2160| Int) (|$cond-alpha-rename:2161| Int) (|$cond-alpha-rename:2162| Int) (|$cond-alpha-rename:2174| Int) (|$cond-alpha-rename:2175| Int) (|$cond-alpha-rename:2177| Int) (|$cond-alpha-rename:2178| Int) (|$cond-alpha-rename:2179| Int) (|$cond-alpha-rename:2186| Int) (|$cond-alpha-rename:2187| Int) (|$cond-alpha-rename:2188| Int) (|$cond-alpha-rename:2189| Int) (|$cond-alpha-rename:2190| Int) (|$cond-alpha-rename:2191| Int) (|$cond-alpha-rename:2192| Int) (|$cond-alpha-rename:2194| Int) (|$cond-alpha-rename:2196| Int) (|$cond-alpha-rename:278| Int) (|$cond-alpha-rename:279| Int) (|$cond-alpha-rename:281| Int) (|$cond-alpha-rename:282| Int) (|$cond-alpha-rename:283| Int) (|$cond-alpha-rename:290| Int) (|$cond-alpha-rename:291| Int) (|$cond-alpha-rename:293| Int) (|$cond-alpha-rename:294| Int) (|$cond-alpha-rename:295| Int) (|$cond-alpha-rename:302| Int) (|$cond-alpha-rename:380| Int) (|$cond-alpha-rename:381| Int) (|$cond-alpha-rename:382| Int) (|$cond-alpha-rename:384| Int) (|$cond-alpha-rename:385| Int) (|$cond-alpha-rename:386| Int) )
    (=>
      ( and (> |$cond-alpha-rename:2189| 0) (= (- |$cond-alpha-rename:2189| 1) (- |$cond-alpha-rename:2189| 1)) (= 1 1) (= 1 1) (= 1 1) (= 1 1) (= 1 1) (= 1 1) (= 1 1) (= 0 0) (= (+ (* 0 |$cond-alpha-rename:2189|) 0) (+ (* 0 |$cond-alpha-rename:2189|) 0)) (= (+ (* 0 |$cond-alpha-rename:2189|) 0) (+ (* 0 |$cond-alpha-rename:2189|) 0)) (= (+ (* 0 |$cond-alpha-rename:2189|) 0) (+ (* 0 |$cond-alpha-rename:2189|) 0)) (= (+ (* 0 |$cond-alpha-rename:2189|) 0) (+ (* 0 |$cond-alpha-rename:2189|) 0)) (= (+ (* 0 |$cond-alpha-rename:2189|) 0) (+ (* 0 |$cond-alpha-rename:2189|) 0)) (= (+ (* 0 |$cond-alpha-rename:2189|) 0) (+ (* 0 |$cond-alpha-rename:2189|) 0)) (not (not (= 0 |$cond-alpha-rename:2146|))) (not (= 0 |$cond-alpha-rename:2146|)) (> |$cond-alpha-rename:2189| 0) (> |$cond-alpha-rename:2189| 0) (> |$cond-alpha-rename:2189| 0) (> |$cond-alpha-rename:2151| 0) (> |$cond-alpha-rename:2189| 0) (> |$cond-alpha-rename:2189| 0) (> |$cond-alpha-rename:2189| 0) (> |$cond-alpha-rename:2189| 0) (> |$cond-alpha-rename:2189| 0) (> |$cond-alpha-rename:2189| 0) (> |$cond-alpha-rename:2189| 0) (|fail$unknown:50| |$cond-alpha-rename:2196| 1) (|f_without_checking_1197$unknown:48| |$cond-alpha-rename:302| |$V-reftype:30| |$cond-alpha-rename:2147| |$cond-alpha-rename:2146| 1 |$cond-alpha-rename:2147| |$cond-alpha-rename:2146| (- |$cond-alpha-rename:2189| 1) |$cond-alpha-rename:2189| 1) (|f_without_checking_1197$unknown:47| |$cond-alpha-rename:380| |$cond-alpha-rename:2147| |$cond-alpha-rename:2146| |$cond-alpha-rename:386| |$cond-alpha-rename:385| |$cond-alpha-rename:384| |$cond-alpha-rename:2189| |$cond-alpha-rename:382| |$cond-alpha-rename:381|) (|f_without_checking_1197$unknown:47| |$cond-alpha-rename:2186| |$cond-alpha-rename:2147| |$cond-alpha-rename:2146| |$cond-alpha-rename:2192| |$cond-alpha-rename:2191| |$cond-alpha-rename:2190| |$cond-alpha-rename:2189| |$cond-alpha-rename:2188| |$cond-alpha-rename:2187|) (|f_without_checking_1197$unknown:47| |$cond-alpha-rename:2156| |$cond-alpha-rename:2147| |$cond-alpha-rename:2146| |$cond-alpha-rename:2162| |$cond-alpha-rename:2161| |$cond-alpha-rename:2160| |$cond-alpha-rename:2189| |$cond-alpha-rename:2158| |$cond-alpha-rename:2157|) (|f_without_checking_1197$unknown:47| |$cond-alpha-rename:2133| |$cond-alpha-rename:2147| |$cond-alpha-rename:2146| |$cond-alpha-rename:2139| |$cond-alpha-rename:2138| |$cond-alpha-rename:2137| |$cond-alpha-rename:2189| |$cond-alpha-rename:2135| |$cond-alpha-rename:2134|) (|f_without_checking_1197$unknown:47| |$cond-alpha-rename:2103| |$cond-alpha-rename:2147| |$cond-alpha-rename:2146| |$cond-alpha-rename:2109| |$cond-alpha-rename:2108| |$cond-alpha-rename:2107| |$cond-alpha-rename:2189| |$cond-alpha-rename:2105| |$cond-alpha-rename:2104|) (|f_without_checking_1197$unknown:47| |$V-reftype:30| |$cond-alpha-rename:2147| |$cond-alpha-rename:2146| |$cond-alpha-rename:295| |$cond-alpha-rename:294| |$cond-alpha-rename:293| |$cond-alpha-rename:2189| |$cond-alpha-rename:291| |$cond-alpha-rename:290|) (|f_without_checking_1197$unknown:47| |$V-reftype:30| |$cond-alpha-rename:2147| |$cond-alpha-rename:2146| |$cond-alpha-rename:283| |$cond-alpha-rename:282| |$cond-alpha-rename:281| |$cond-alpha-rename:2189| |$cond-alpha-rename:279| |$cond-alpha-rename:278|) (|f_without_checking_1197$unknown:47| |$V-reftype:30| |$cond-alpha-rename:2147| |$cond-alpha-rename:2146| |$alpha-29:u_1037| |$alpha-28:s_f_n_1182| |$alpha-27:set_flag_f_1187| |$cond-alpha-rename:2189| |$alpha-25:x_DO_NOT_CARE_1216| |$alpha-24:x_DO_NOT_CARE_1215|) (|f_without_checking_1197$unknown:47| |$V-reftype:30| |$cond-alpha-rename:2147| |$cond-alpha-rename:2146| |$cond-alpha-rename:2126| |$cond-alpha-rename:2125| |$cond-alpha-rename:2124| |$cond-alpha-rename:2189| |$cond-alpha-rename:2122| |$cond-alpha-rename:2121|) (|f_without_checking_1197$unknown:47| |$V-reftype:30| |$cond-alpha-rename:2147| |$cond-alpha-rename:2146| |$cond-alpha-rename:2179| |$cond-alpha-rename:2178| |$cond-alpha-rename:2177| |$cond-alpha-rename:2189| |$cond-alpha-rename:2175| |$cond-alpha-rename:2174|) (|bot$unknown:18| |$cond-alpha-rename:2194| 1) )
      (|f_without_checking_1197$unknown:48| |$cond-alpha-rename:302| |$V-reftype:30| |$cond-alpha-rename:2147| |$cond-alpha-rename:2146| |$alpha-29:u_1037| |$alpha-28:s_f_n_1182| |$alpha-27:set_flag_f_1187| |$cond-alpha-rename:2189| |$alpha-25:x_DO_NOT_CARE_1216| |$alpha-24:x_DO_NOT_CARE_1215|)
    )
  )
)
(assert
  (forall ( (|$V-reftype:30| Int) (|$alpha-24:x_DO_NOT_CARE_1215| Int) (|$alpha-25:x_DO_NOT_CARE_1216| Int) (|$alpha-27:set_flag_f_1187| Int) (|$alpha-28:s_f_n_1182| Int) (|$alpha-29:u_1037| Int) (|$cond-alpha-rename:2199| Int) (|$cond-alpha-rename:2200| Int) (|$cond-alpha-rename:2202| Int) (|$cond-alpha-rename:2203| Int) (|$cond-alpha-rename:2204| Int) (|$cond-alpha-rename:2211| Int) (|$cond-alpha-rename:2212| Int) (|$cond-alpha-rename:2213| Int) (|$cond-alpha-rename:2215| Int) (|$cond-alpha-rename:2216| Int) (|$cond-alpha-rename:2217| Int) (|$cond-alpha-rename:2231| Int) (|$cond-alpha-rename:2232| Int) (|$cond-alpha-rename:2233| Int) (|$cond-alpha-rename:2235| Int) (|$cond-alpha-rename:2236| Int) (|$cond-alpha-rename:2237| Int) (|$cond-alpha-rename:2249| Int) (|$cond-alpha-rename:2250| Int) (|$cond-alpha-rename:2252| Int) (|$cond-alpha-rename:2253| Int) (|$cond-alpha-rename:2254| Int) (|$cond-alpha-rename:2261| Int) (|$cond-alpha-rename:2262| Int) (|$cond-alpha-rename:2263| Int) (|$cond-alpha-rename:2265| Int) (|$cond-alpha-rename:2266| Int) (|$cond-alpha-rename:2267| Int) (|$cond-alpha-rename:2274| Int) (|$cond-alpha-rename:2275| Int) (|$cond-alpha-rename:2280| Int) (|$cond-alpha-rename:2282| Int) (|$cond-alpha-rename:2283| Int) (|$cond-alpha-rename:2288| Int) (|$cond-alpha-rename:2289| Int) (|$cond-alpha-rename:2290| Int) (|$cond-alpha-rename:2291| Int) (|$cond-alpha-rename:2292| Int) (|$cond-alpha-rename:2293| Int) (|$cond-alpha-rename:2294| Int) (|$cond-alpha-rename:278| Int) (|$cond-alpha-rename:279| Int) (|$cond-alpha-rename:281| Int) (|$cond-alpha-rename:282| Int) (|$cond-alpha-rename:283| Int) (|$cond-alpha-rename:290| Int) (|$cond-alpha-rename:291| Int) (|$cond-alpha-rename:293| Int) (|$cond-alpha-rename:294| Int) (|$cond-alpha-rename:295| Int) (|$cond-alpha-rename:302| Int) (|$cond-alpha-rename:380| Int) (|$cond-alpha-rename:381| Int) (|$cond-alpha-rename:382| Int) (|$cond-alpha-rename:384| Int) (|$cond-alpha-rename:385| Int) (|$cond-alpha-rename:386| Int) )
    (=>
      ( and (> |$cond-alpha-rename:2291| 0) (= (- |$cond-alpha-rename:2291| 1) (- |$cond-alpha-rename:2291| 1)) (= 1 1) (= 1 1) (= 1 1) (= 1 1) (= 1 1) (= 1 1) (= 1 1) (= 0 0) (= (+ (* 0 |$cond-alpha-rename:2291|) 0) (+ (* 0 |$cond-alpha-rename:2291|) 0)) (= (+ (* 0 |$cond-alpha-rename:2291|) 0) (+ (* 0 |$cond-alpha-rename:2291|) 0)) (= (+ (* 0 |$cond-alpha-rename:2291|) 0) (+ (* 0 |$cond-alpha-rename:2291|) 0)) (= (+ (* 0 |$cond-alpha-rename:2291|) 0) (+ (* 0 |$cond-alpha-rename:2291|) 0)) (= (+ (* 0 |$cond-alpha-rename:2291|) 0) (+ (* 0 |$cond-alpha-rename:2291|) 0)) (= (+ (* 0 |$cond-alpha-rename:2291|) 0) (+ (* 0 |$cond-alpha-rename:2291|) 0)) (not (not (= 0 |$cond-alpha-rename:2274|))) (not (= 0 |$cond-alpha-rename:2274|)) (> |$cond-alpha-rename:2291| 0) (> |$cond-alpha-rename:2291| 0) (> |$cond-alpha-rename:2283| 0) (> |$cond-alpha-rename:2291| 0) (> |$cond-alpha-rename:2291| 0) (> |$cond-alpha-rename:2291| 0) (> |$cond-alpha-rename:2291| 0) (> |$cond-alpha-rename:2291| 0) (> |$cond-alpha-rename:2291| 0) (> |$cond-alpha-rename:2291| 0) (> |$cond-alpha-rename:2291| 0) (|fail$unknown:50| |$cond-alpha-rename:2282| 1) (|f_without_checking_1197$unknown:48| |$cond-alpha-rename:302| |$V-reftype:30| |$cond-alpha-rename:2275| |$cond-alpha-rename:2274| 1 |$cond-alpha-rename:2275| |$cond-alpha-rename:2274| (- |$cond-alpha-rename:2291| 1) |$cond-alpha-rename:2291| 1) (|f_without_checking_1197$unknown:47| |$cond-alpha-rename:380| |$cond-alpha-rename:2275| |$cond-alpha-rename:2274| |$cond-alpha-rename:386| |$cond-alpha-rename:385| |$cond-alpha-rename:384| |$cond-alpha-rename:2291| |$cond-alpha-rename:382| |$cond-alpha-rename:381|) (|f_without_checking_1197$unknown:47| |$cond-alpha-rename:2288| |$cond-alpha-rename:2275| |$cond-alpha-rename:2274| |$cond-alpha-rename:2294| |$cond-alpha-rename:2293| |$cond-alpha-rename:2292| |$cond-alpha-rename:2291| |$cond-alpha-rename:2290| |$cond-alpha-rename:2289|) (|f_without_checking_1197$unknown:47| |$cond-alpha-rename:2261| |$cond-alpha-rename:2275| |$cond-alpha-rename:2274| |$cond-alpha-rename:2267| |$cond-alpha-rename:2266| |$cond-alpha-rename:2265| |$cond-alpha-rename:2291| |$cond-alpha-rename:2263| |$cond-alpha-rename:2262|) (|f_without_checking_1197$unknown:47| |$cond-alpha-rename:2231| |$cond-alpha-rename:2275| |$cond-alpha-rename:2274| |$cond-alpha-rename:2237| |$cond-alpha-rename:2236| |$cond-alpha-rename:2235| |$cond-alpha-rename:2291| |$cond-alpha-rename:2233| |$cond-alpha-rename:2232|) (|f_without_checking_1197$unknown:47| |$cond-alpha-rename:2211| |$cond-alpha-rename:2275| |$cond-alpha-rename:2274| |$cond-alpha-rename:2217| |$cond-alpha-rename:2216| |$cond-alpha-rename:2215| |$cond-alpha-rename:2291| |$cond-alpha-rename:2213| |$cond-alpha-rename:2212|) (|f_without_checking_1197$unknown:47| |$V-reftype:30| |$cond-alpha-rename:2275| |$cond-alpha-rename:2274| |$cond-alpha-rename:295| |$cond-alpha-rename:294| |$cond-alpha-rename:293| |$cond-alpha-rename:2291| |$cond-alpha-rename:291| |$cond-alpha-rename:290|) (|f_without_checking_1197$unknown:47| |$V-reftype:30| |$cond-alpha-rename:2275| |$cond-alpha-rename:2274| |$cond-alpha-rename:283| |$cond-alpha-rename:282| |$cond-alpha-rename:281| |$cond-alpha-rename:2291| |$cond-alpha-rename:279| |$cond-alpha-rename:278|) (|f_without_checking_1197$unknown:47| |$V-reftype:30| |$cond-alpha-rename:2275| |$cond-alpha-rename:2274| |$alpha-29:u_1037| |$alpha-28:s_f_n_1182| |$alpha-27:set_flag_f_1187| |$cond-alpha-rename:2291| |$alpha-25:x_DO_NOT_CARE_1216| |$alpha-24:x_DO_NOT_CARE_1215|) (|f_without_checking_1197$unknown:47| |$V-reftype:30| |$cond-alpha-rename:2275| |$cond-alpha-rename:2274| |$cond-alpha-rename:2254| |$cond-alpha-rename:2253| |$cond-alpha-rename:2252| |$cond-alpha-rename:2291| |$cond-alpha-rename:2250| |$cond-alpha-rename:2249|) (|f_without_checking_1197$unknown:47| |$V-reftype:30| |$cond-alpha-rename:2275| |$cond-alpha-rename:2274| |$cond-alpha-rename:2204| |$cond-alpha-rename:2203| |$cond-alpha-rename:2202| |$cond-alpha-rename:2291| |$cond-alpha-rename:2200| |$cond-alpha-rename:2199|) (|bot$unknown:18| |$cond-alpha-rename:2280| 1) )
      (|f_without_checking_1197$unknown:48| |$cond-alpha-rename:302| |$V-reftype:30| |$cond-alpha-rename:2275| |$cond-alpha-rename:2274| |$alpha-29:u_1037| |$alpha-28:s_f_n_1182| |$alpha-27:set_flag_f_1187| |$cond-alpha-rename:2291| |$alpha-25:x_DO_NOT_CARE_1216| |$alpha-24:x_DO_NOT_CARE_1215|)
    )
  )
)
(assert
  (forall ( (|$V-reftype:30| Int) (|$alpha-24:x_DO_NOT_CARE_1215| Int) (|$alpha-25:x_DO_NOT_CARE_1216| Int) (|$alpha-27:set_flag_f_1187| Int) (|$alpha-28:s_f_n_1182| Int) (|$alpha-29:u_1037| Int) (|$cond-alpha-rename:2306| Int) (|$cond-alpha-rename:2307| Int) (|$cond-alpha-rename:2309| Int) (|$cond-alpha-rename:2310| Int) (|$cond-alpha-rename:2311| Int) (|$cond-alpha-rename:2318| Int) (|$cond-alpha-rename:2319| Int) (|$cond-alpha-rename:2320| Int) (|$cond-alpha-rename:2322| Int) (|$cond-alpha-rename:2323| Int) (|$cond-alpha-rename:2324| Int) (|$cond-alpha-rename:2338| Int) (|$cond-alpha-rename:2339| Int) (|$cond-alpha-rename:2340| Int) (|$cond-alpha-rename:2342| Int) (|$cond-alpha-rename:2343| Int) (|$cond-alpha-rename:2344| Int) (|$cond-alpha-rename:2356| Int) (|$cond-alpha-rename:2357| Int) (|$cond-alpha-rename:2359| Int) (|$cond-alpha-rename:2360| Int) (|$cond-alpha-rename:2361| Int) (|$cond-alpha-rename:2368| Int) (|$cond-alpha-rename:2369| Int) (|$cond-alpha-rename:2370| Int) (|$cond-alpha-rename:2372| Int) (|$cond-alpha-rename:2373| Int) (|$cond-alpha-rename:2374| Int) (|$cond-alpha-rename:2381| Int) (|$cond-alpha-rename:2382| Int) (|$cond-alpha-rename:2386| Int) (|$cond-alpha-rename:2391| Int) (|$cond-alpha-rename:2392| Int) (|$cond-alpha-rename:2393| Int) (|$cond-alpha-rename:2394| Int) (|$cond-alpha-rename:2395| Int) (|$cond-alpha-rename:2396| Int) (|$cond-alpha-rename:2397| Int) (|$cond-alpha-rename:278| Int) (|$cond-alpha-rename:279| Int) (|$cond-alpha-rename:281| Int) (|$cond-alpha-rename:282| Int) (|$cond-alpha-rename:283| Int) (|$cond-alpha-rename:290| Int) (|$cond-alpha-rename:291| Int) (|$cond-alpha-rename:293| Int) (|$cond-alpha-rename:294| Int) (|$cond-alpha-rename:295| Int) (|$cond-alpha-rename:302| Int) (|$cond-alpha-rename:380| Int) (|$cond-alpha-rename:381| Int) (|$cond-alpha-rename:382| Int) (|$cond-alpha-rename:384| Int) (|$cond-alpha-rename:385| Int) (|$cond-alpha-rename:386| Int) )
    (=>
      ( and (> |$cond-alpha-rename:2394| 0) (= (- |$cond-alpha-rename:2394| 1) (- |$cond-alpha-rename:2394| 1)) (= 1 1) (= 1 1) (= 1 1) (= 1 1) (= 1 1) (= 1 1) (= 1 1) (= 0 0) (= (+ (* 0 |$cond-alpha-rename:2394|) 0) (+ (* 0 |$cond-alpha-rename:2394|) 0)) (= (+ (* 0 |$cond-alpha-rename:2394|) 0) (+ (* 0 |$cond-alpha-rename:2394|) 0)) (= (+ (* 0 |$cond-alpha-rename:2394|) 0) (+ (* 0 |$cond-alpha-rename:2394|) 0)) (= (+ (* 0 |$cond-alpha-rename:2394|) 0) (+ (* 0 |$cond-alpha-rename:2394|) 0)) (= (+ (* 0 |$cond-alpha-rename:2394|) 0) (+ (* 0 |$cond-alpha-rename:2394|) 0)) (= (+ (* 0 |$cond-alpha-rename:2394|) 0) (+ (* 0 |$cond-alpha-rename:2394|) 0)) (not (not (= 0 |$cond-alpha-rename:2381|))) (> |$cond-alpha-rename:2394| 0) (> |$cond-alpha-rename:2394| 0) (> |$cond-alpha-rename:2386| 0) (> |$cond-alpha-rename:2394| 0) (> |$cond-alpha-rename:2394| 0) (> |$cond-alpha-rename:2394| 0) (> |$cond-alpha-rename:2394| 0) (> |$cond-alpha-rename:2394| 0) (> |$cond-alpha-rename:2394| 0) (> |$cond-alpha-rename:2394| 0) (> |$cond-alpha-rename:2394| 0) (|f_without_checking_1197$unknown:48| |$cond-alpha-rename:302| |$V-reftype:30| |$cond-alpha-rename:2382| |$cond-alpha-rename:2381| 1 |$cond-alpha-rename:2382| |$cond-alpha-rename:2381| (- |$cond-alpha-rename:2394| 1) |$cond-alpha-rename:2394| 1) (|f_without_checking_1197$unknown:47| |$cond-alpha-rename:380| |$cond-alpha-rename:2382| |$cond-alpha-rename:2381| |$cond-alpha-rename:386| |$cond-alpha-rename:385| |$cond-alpha-rename:384| |$cond-alpha-rename:2394| |$cond-alpha-rename:382| |$cond-alpha-rename:381|) (|f_without_checking_1197$unknown:47| |$cond-alpha-rename:2391| |$cond-alpha-rename:2382| |$cond-alpha-rename:2381| |$cond-alpha-rename:2397| |$cond-alpha-rename:2396| |$cond-alpha-rename:2395| |$cond-alpha-rename:2394| |$cond-alpha-rename:2393| |$cond-alpha-rename:2392|) (|f_without_checking_1197$unknown:47| |$cond-alpha-rename:2368| |$cond-alpha-rename:2382| |$cond-alpha-rename:2381| |$cond-alpha-rename:2374| |$cond-alpha-rename:2373| |$cond-alpha-rename:2372| |$cond-alpha-rename:2394| |$cond-alpha-rename:2370| |$cond-alpha-rename:2369|) (|f_without_checking_1197$unknown:47| |$cond-alpha-rename:2338| |$cond-alpha-rename:2382| |$cond-alpha-rename:2381| |$cond-alpha-rename:2344| |$cond-alpha-rename:2343| |$cond-alpha-rename:2342| |$cond-alpha-rename:2394| |$cond-alpha-rename:2340| |$cond-alpha-rename:2339|) (|f_without_checking_1197$unknown:47| |$cond-alpha-rename:2318| |$cond-alpha-rename:2382| |$cond-alpha-rename:2381| |$cond-alpha-rename:2324| |$cond-alpha-rename:2323| |$cond-alpha-rename:2322| |$cond-alpha-rename:2394| |$cond-alpha-rename:2320| |$cond-alpha-rename:2319|) (|f_without_checking_1197$unknown:47| |$V-reftype:30| |$cond-alpha-rename:2382| |$cond-alpha-rename:2381| |$cond-alpha-rename:295| |$cond-alpha-rename:294| |$cond-alpha-rename:293| |$cond-alpha-rename:2394| |$cond-alpha-rename:291| |$cond-alpha-rename:290|) (|f_without_checking_1197$unknown:47| |$V-reftype:30| |$cond-alpha-rename:2382| |$cond-alpha-rename:2381| |$cond-alpha-rename:283| |$cond-alpha-rename:282| |$cond-alpha-rename:281| |$cond-alpha-rename:2394| |$cond-alpha-rename:279| |$cond-alpha-rename:278|) (|f_without_checking_1197$unknown:47| |$V-reftype:30| |$cond-alpha-rename:2382| |$cond-alpha-rename:2381| |$alpha-29:u_1037| |$alpha-28:s_f_n_1182| |$alpha-27:set_flag_f_1187| |$cond-alpha-rename:2394| |$alpha-25:x_DO_NOT_CARE_1216| |$alpha-24:x_DO_NOT_CARE_1215|) (|f_without_checking_1197$unknown:47| |$V-reftype:30| |$cond-alpha-rename:2382| |$cond-alpha-rename:2381| |$cond-alpha-rename:2361| |$cond-alpha-rename:2360| |$cond-alpha-rename:2359| |$cond-alpha-rename:2394| |$cond-alpha-rename:2357| |$cond-alpha-rename:2356|) (|f_without_checking_1197$unknown:47| |$V-reftype:30| |$cond-alpha-rename:2382| |$cond-alpha-rename:2381| |$cond-alpha-rename:2311| |$cond-alpha-rename:2310| |$cond-alpha-rename:2309| |$cond-alpha-rename:2394| |$cond-alpha-rename:2307| |$cond-alpha-rename:2306|) )
      (|f_without_checking_1197$unknown:48| |$cond-alpha-rename:302| |$V-reftype:30| |$cond-alpha-rename:2382| |$cond-alpha-rename:2381| |$alpha-29:u_1037| |$alpha-28:s_f_n_1182| |$alpha-27:set_flag_f_1187| |$cond-alpha-rename:2394| |$alpha-25:x_DO_NOT_CARE_1216| |$alpha-24:x_DO_NOT_CARE_1215|)
    )
  )
)
(assert
  (forall ( (|$alpha-1:$$tmp::1| Int) (|$knormal:2| Int) )
    (=>
      ( and (|bot$unknown:18| |$knormal:2| 1) )
      (|bot$unknown:18| |$knormal:2| |$alpha-1:$$tmp::1|)
    )
  )
)
(assert
  (forall ( (|$V-reftype:51| Int) (|$alpha-26:n_1036| Int) (|$cond-alpha-rename:1299| Int) (|$cond-alpha-rename:1300| Int) (|$cond-alpha-rename:1301| Int) (|$cond-alpha-rename:1303| Int) (|$cond-alpha-rename:1304| Int) (|$cond-alpha-rename:1305| Int) (|$cond-alpha-rename:1317| Int) (|$cond-alpha-rename:1318| Int) (|$cond-alpha-rename:1320| Int) (|$cond-alpha-rename:1321| Int) (|$cond-alpha-rename:1322| Int) (|$cond-alpha-rename:1329| Int) (|$cond-alpha-rename:1330| Int) (|$cond-alpha-rename:1331| Int) (|$cond-alpha-rename:1332| Int) (|$cond-alpha-rename:1333| Int) (|$cond-alpha-rename:1334| Int) (|$cond-alpha-rename:1335| Int) (|$cond-alpha-rename:1342| Int) (|$cond-alpha-rename:1343| Int) (|$cond-alpha-rename:1348| Int) (|$cond-alpha-rename:1350| Int) )
    (=>
      ( and (|bot$unknown:18| |$cond-alpha-rename:1348| 1) (|f_without_checking_1197$unknown:47| |$V-reftype:51| |$cond-alpha-rename:1343| |$cond-alpha-rename:1342| |$cond-alpha-rename:1322| |$cond-alpha-rename:1321| |$cond-alpha-rename:1320| |$cond-alpha-rename:1332| |$cond-alpha-rename:1318| |$cond-alpha-rename:1317|) (|f_without_checking_1197$unknown:47| |$cond-alpha-rename:1299| |$cond-alpha-rename:1343| |$cond-alpha-rename:1342| |$cond-alpha-rename:1305| |$cond-alpha-rename:1304| |$cond-alpha-rename:1303| |$cond-alpha-rename:1332| |$cond-alpha-rename:1301| |$cond-alpha-rename:1300|) (|f_without_checking_1197$unknown:47| |$cond-alpha-rename:1329| |$cond-alpha-rename:1343| |$cond-alpha-rename:1342| |$cond-alpha-rename:1335| |$cond-alpha-rename:1334| |$cond-alpha-rename:1333| |$cond-alpha-rename:1332| |$cond-alpha-rename:1331| |$cond-alpha-rename:1330|) (|fail$unknown:50| |$cond-alpha-rename:1350| 1) (not (= 0 |$cond-alpha-rename:1342|)) (> |$cond-alpha-rename:1332| 0) (> |$cond-alpha-rename:1332| 0) (> |$cond-alpha-rename:1332| 0) (> |$cond-alpha-rename:1332| 0) (> |$cond-alpha-rename:1332| 0) (= (+ (* 0 |$cond-alpha-rename:1332|) 0) (+ (* 0 |$cond-alpha-rename:1332|) 0)) (= (+ (* 0 |$cond-alpha-rename:1332|) 0) (+ (* 0 |$cond-alpha-rename:1332|) 0)) (= (+ (* 0 |$cond-alpha-rename:1332|) 0) (+ (* 0 |$cond-alpha-rename:1332|) 0)) (= 1 1) (= 1 1) (= 1 1) (> |$alpha-26:n_1036| 0) )
      (|f_without_checking_1197$unknown:47| |$V-reftype:51| |$cond-alpha-rename:1343| |$cond-alpha-rename:1342| 1 |$cond-alpha-rename:1343| |$cond-alpha-rename:1342| (- |$cond-alpha-rename:1332| 1) |$cond-alpha-rename:1332| 1)
    )
  )
)
(assert
  (forall ( (|$V-reftype:51| Int) (|$alpha-26:n_1036| Int) (|$cond-alpha-rename:1353| Int) (|$cond-alpha-rename:1354| Int) (|$cond-alpha-rename:1355| Int) (|$cond-alpha-rename:1357| Int) (|$cond-alpha-rename:1358| Int) (|$cond-alpha-rename:1359| Int) (|$cond-alpha-rename:1371| Int) (|$cond-alpha-rename:1372| Int) (|$cond-alpha-rename:1374| Int) (|$cond-alpha-rename:1375| Int) (|$cond-alpha-rename:1376| Int) (|$cond-alpha-rename:1383| Int) (|$cond-alpha-rename:1384| Int) (|$cond-alpha-rename:1385| Int) (|$cond-alpha-rename:1386| Int) (|$cond-alpha-rename:1387| Int) (|$cond-alpha-rename:1388| Int) (|$cond-alpha-rename:1389| Int) (|$cond-alpha-rename:1396| Int) (|$cond-alpha-rename:1397| Int) )
    (=>
      ( and (|f_without_checking_1197$unknown:47| |$V-reftype:51| |$cond-alpha-rename:1397| |$cond-alpha-rename:1396| |$cond-alpha-rename:1376| |$cond-alpha-rename:1375| |$cond-alpha-rename:1374| |$cond-alpha-rename:1386| |$cond-alpha-rename:1372| |$cond-alpha-rename:1371|) (|f_without_checking_1197$unknown:47| |$cond-alpha-rename:1353| |$cond-alpha-rename:1397| |$cond-alpha-rename:1396| |$cond-alpha-rename:1359| |$cond-alpha-rename:1358| |$cond-alpha-rename:1357| |$cond-alpha-rename:1386| |$cond-alpha-rename:1355| |$cond-alpha-rename:1354|) (|f_without_checking_1197$unknown:47| |$cond-alpha-rename:1383| |$cond-alpha-rename:1397| |$cond-alpha-rename:1396| |$cond-alpha-rename:1389| |$cond-alpha-rename:1388| |$cond-alpha-rename:1387| |$cond-alpha-rename:1386| |$cond-alpha-rename:1385| |$cond-alpha-rename:1384|) (> |$cond-alpha-rename:1386| 0) (> |$cond-alpha-rename:1386| 0) (> |$cond-alpha-rename:1386| 0) (> |$cond-alpha-rename:1386| 0) (> |$cond-alpha-rename:1386| 0) (not (not (= 0 |$cond-alpha-rename:1396|))) (= (+ (* 0 |$cond-alpha-rename:1386|) 0) (+ (* 0 |$cond-alpha-rename:1386|) 0)) (= (+ (* 0 |$cond-alpha-rename:1386|) 0) (+ (* 0 |$cond-alpha-rename:1386|) 0)) (= (+ (* 0 |$cond-alpha-rename:1386|) 0) (+ (* 0 |$cond-alpha-rename:1386|) 0)) (= 1 1) (= 1 1) (= 1 1) (> |$alpha-26:n_1036| 0) )
      (|f_without_checking_1197$unknown:47| |$V-reftype:51| |$cond-alpha-rename:1397| |$cond-alpha-rename:1396| 1 |$cond-alpha-rename:1397| |$cond-alpha-rename:1396| (- |$cond-alpha-rename:1386| 1) |$cond-alpha-rename:1386| 1)
    )
  )
)
(assert
  (forall ( (|$V-reftype:101| Int) (|$V-reftype:97| Int) (|$V-reftype:99| Int) (|$alpha-24:x_DO_NOT_CARE_1215| Int) (|$alpha-25:x_DO_NOT_CARE_1216| Int) (|$alpha-26:n_1036| Int) (|$alpha-27:set_flag_f_1187| Int) (|$alpha-28:s_f_n_1182| Int) (|$alpha-29:u_1037| Int) )
    (=>
      ( and (|f_without_checking_1197$unknown:47| |$V-reftype:101| |$V-reftype:99| |$V-reftype:97| |$alpha-29:u_1037| |$alpha-28:s_f_n_1182| |$alpha-27:set_flag_f_1187| |$alpha-26:n_1036| |$alpha-25:x_DO_NOT_CARE_1216| |$alpha-24:x_DO_NOT_CARE_1215|) (not (> |$alpha-26:n_1036| 0)) )
      (|f_without_checking_1197$unknown:48| |$V-reftype:101| |$V-reftype:101| |$V-reftype:99| |$V-reftype:97| |$alpha-29:u_1037| |$alpha-28:s_f_n_1182| |$alpha-27:set_flag_f_1187| |$alpha-26:n_1036| |$alpha-25:x_DO_NOT_CARE_1216| |$alpha-24:x_DO_NOT_CARE_1215|)
    )
  )
)
(assert
  (not (exists ( (|$cond-alpha-rename:1046| Int) (|$cond-alpha-rename:1047| Int) (|$cond-alpha-rename:1051| Int) (|$cond-alpha-rename:1052| Int) (|$cond-alpha-rename:1053| Int) (|$cond-alpha-rename:1054| Int) (|$cond-alpha-rename:1055| Int) (|$cond-alpha-rename:1056| Int) (|$cond-alpha-rename:1057| Int) )
    ( and (= (+ (* 0 |$cond-alpha-rename:1054|) 0) (+ (* 0 |$cond-alpha-rename:1054|) 0)) (= 1 1) (> |$cond-alpha-rename:1054| 0) (> |$cond-alpha-rename:1054| 0) (not (= 0 |$cond-alpha-rename:1046|)) (|f_without_checking_1197$unknown:47| |$cond-alpha-rename:1051| |$cond-alpha-rename:1047| |$cond-alpha-rename:1046| |$cond-alpha-rename:1057| |$cond-alpha-rename:1056| |$cond-alpha-rename:1055| |$cond-alpha-rename:1054| |$cond-alpha-rename:1053| |$cond-alpha-rename:1052|) )
    )
  )
)
(assert
  (forall ( (|$alpha-34:r| Int) )
    (=>
      ( and (|main_1038$unknown:55| |$alpha-34:r|) )
      (|f_without_checking_1197$unknown:47| 1 0 0 1 0 0 |$alpha-34:r| 0 0)
    )
  )
)
(check-sat)

(get-model)

(exit)

